p tw 164 182
1 2
2 77
3 14
4 5
5 6
5 40
6 7
7 8
8 9
8 40
9 10
10 11
10 30
11 12
12 13
13 15
14 25
15 16
16 17
17 18
17 30
18 19
19 20
20 21
20 30
21 22
22 23
23 24
24 26
24 30
25 36
26 27
26 30
27 28
28 29
29 30
30 31
31 32
32 33
33 34
34 35
35 37
36 47
37 38
38 39
39 40
40 41
41 42
42 43
43 44
44 45
45 46
46 48
46 49
47 58
47 79
48 72
49 50
50 51
51 52
52 53
53 54
54 55
55 56
56 57
57 59
58 69
59 60
60 61
61 62
62 63
63 64
64 65
65 66
66 67
67 68
68 70
69 74
70 71
71 156
72 73
74 75
75 76
76 78
77 88
78 79
79 80
80 81
81 82
82 83
83 84
83 95
84 85
85 86
85 122
86 87
87 89
88 99
89 90
89 122
90 91
91 92
92 93
93 94
94 95
94 122
95 96
96 97
96 100
97 98
98 102
99 110
100 101
101 102
102 103
103 104
104 105
105 106
106 107
107 108
108 109
109 111
110 121
111 112
112 113
113 114
114 115
115 116
116 117
117 118
118 119
119 120
120 126
121 132
121 25
122 123
123 124
124 125
125 126
126 127
127 128
128 129
129 130
130 131
131 133
132 143
133 134
134 135
134 139
135 136
135 139
136 137
137 138
138 72
139 140
140 141
141 142
142 144
143 154
144 145
145 146
146 147
146 149
147 148
148 149
149 150
150 151
151 152
152 153
153 155
154 3
155 156
156 157
157 158
158 159
159 160
160 161
161 162
162 163
162 40
163 164
164 4
